experiments/knapsack_bounded/knapsack_bounded_15_8.mps
NAME
ROWS
 N  OBJ
 L  c1
 L  c2
 L  c3
 L  c4
 L  c5
 L  c6
 L  c7
 L  c8
 L  c9
 L  c10
 L  c11
 L  c12
 L  c13
 L  c14
 L  c15
 L  c16
COLUMNS
    MARKER    'MARKER'                 'INTORG'
    x[1]      c1        230
    x[1]      c2        1
    x[1]      OBJ       -79
    x[2]      c1        682
    x[2]      c3        1
    x[2]      OBJ       -108
    x[3]      c1        331
    x[3]      c4        1
    x[3]      OBJ       -70
    x[4]      c1        62
    x[4]      c5        1
    x[4]      OBJ       -958
    x[5]      c1        603
    x[5]      c6        1
    x[5]      OBJ       -425
    x[6]      c1        382
    x[6]      c7        1
    x[6]      OBJ       -527
    x[7]      c1        687
    x[7]      c8        1
    x[7]      OBJ       -810
    x[8]      c1        666
    x[8]      c9        1
    x[8]      OBJ       -291
    x[9]      c1        941
    x[9]      c10       1
    x[9]      OBJ       -80
    x[10]     c1        438
    x[10]     c11       1
    x[10]     OBJ       -534
    x[11]     c1        566
    x[11]     c12       1
    x[11]     OBJ       -568
    x[12]     c1        447
    x[12]     c13       1
    x[12]     OBJ       -790
    x[13]     c1        895
    x[13]     c14       1
    x[13]     OBJ       -213
    x[14]     c1        700
    x[14]     c15       1
    x[14]     OBJ       -194
    x[15]     c1        57
    x[15]     c16       1
    x[15]     OBJ       -374
    MARKER    'MARKER'                 'INTEND'
RHS
    rhs       c1        3844
    rhs       c2        5
    rhs       c3        8
    rhs       c4        2
    rhs       c5        8
    rhs       c6        2
    rhs       c7        4
    rhs       c8        5
    rhs       c9        9
    rhs       c10       10
    rhs       c11       1
    rhs       c12       1
    rhs       c13       10
    rhs       c14       7
    rhs       c15       8
    rhs       c16       1
RANGES
BOUNDS
 LO bounds    x[1]      0
 PL bounds    x[1]
 LO bounds    x[2]      0
 PL bounds    x[2]
 LO bounds    x[3]      0
 PL bounds    x[3]
 LO bounds    x[4]      0
 PL bounds    x[4]
 LO bounds    x[5]      0
 PL bounds    x[5]
 LO bounds    x[6]      0
 PL bounds    x[6]
 LO bounds    x[7]      0
 PL bounds    x[7]
 LO bounds    x[8]      0
 PL bounds    x[8]
 LO bounds    x[9]      0
 PL bounds    x[9]
 LO bounds    x[10]     0
 PL bounds    x[10]
 LO bounds    x[11]     0
 PL bounds    x[11]
 LO bounds    x[12]     0
 PL bounds    x[12]
 LO bounds    x[13]     0
 PL bounds    x[13]
 LO bounds    x[14]     0
 PL bounds    x[14]
 LO bounds    x[15]     0
 PL bounds    x[15]
ENDATA
