experiments/knapsack_bounded/knapsack_bounded_15_8.mps.log
Algorithm statistics:
zero_reductions => 13611
max_basis_size => 438
queued_pairs => 0
built_pairs => 14291
reduced_pairs => 14198
eliminated_by_truncation => 164
removed_by_autoreduction => 0
eliminated_by_gcd => 81412
time => 0.059900127
memory => 0.01182778924703598
4ti2 results
4ti2 time => 0.039591215
